Maximize
  - 2.891153410536 edge_0_1_0_0 - 1.2643501650472 edge_0_3_0_0
   - 3.253012335936 edge_0_7_0_0 - 2.9729548567792 edge_0_8_0_0
   - 3.1096121724385 edge_0_9_0_0 - 2.5617290041536 edge_0_12_0_0
   - 2.6101396730514 edge_0_13_0_0 - 2.4214221970236 edge_0_16_0_0
   - 0.6886719823392 edge_0_17_0_0 - 3.2979664711721 edge_0_20_0_0
   - 0.0716425773190797 edge_1_7_0_0 - 0.3337719881266616 edge_1_8_0_0
   - 0.0431263807353168 edge_1_9_0_0 - 0.6360782048932127 edge_1_12_0_0
   - 0.967698263166323 edge_1_13_0_0 - 1.196765164683585 edge_1_16_0_0
   - 0.5200618684937941 edge_1_17_0_0 - 0.4745296380086681 edge_3_1_0_0
   - 0.7688913574533049 edge_3_7_0_0 - 0.5117866931390892 edge_3_8_0_0
   - 0.2324516880245422 edge_3_9_0_0 - 0.1517145204159943 edge_3_12_0_0
   - 0.0317562905208962 edge_3_13_0_0 + 0.4554928579329646 edge_3_14_0_0
   + 0.3943073906418608 edge_3_16_0_0 + 0.4078632304972833 edge_3_17_0_0
   - 0.1976423782581226 edge_3_18_0_0 + 0.2485873684542111 edge_3_20_0_0
   + 0.1572023724049162 edge_3_22_0_0 + 0.3056526661066788 edge_3_23_0_0
   - 0.0220431159716229 edge_7_1_0_0 + 1.116754838986786 edge_7_8_0_0
   - 0.0240898216689558 edge_7_9_0_0 + 0.2298380549614976 edge_7_12_0_0
   - 0.3853213145757079 edge_7_13_0_0 - 0.9227759853234072 edge_7_16_0_0
   - 0.0217566861692667 edge_7_17_0_0 + 0.2262256858854672 edge_7_23_0_0
   + 0.6301127396663945 edge_8_1_0_0 - 0.3578180747565597 edge_8_3_0_0
   + 2.523263149691199 edge_8_7_0_0 + 0.7649988543360324 edge_8_9_0_0
   + 0.5554733078826349 edge_8_12_0_0 + 0.6051390957471933 edge_8_13_0_0
   - 0.3612991769183626 edge_8_16_0_0 + 0.1282986117463777 edge_8_17_0_0
   - 1.217196591842253 edge_8_20_0_0 - 0.542904460808458 edge_8_22_0_0
   + 0.4127702808965587 edge_8_23_0_0 - 1.059988215610612 edge_9_7_0_0
   - 1.062569277017371 edge_9_8_0_0 - 0.2394617956289167 edge_9_12_0_0
   - 0.2608773019888825 edge_9_13_0_0 - 0.2107979402301661 edge_12_1_0_0
   - 0.1272831563243522 edge_12_3_0_0 + 0.1672265813920366 edge_12_7_0_0
   + 0.0220132799761278 edge_12_8_0_0 + 0.5159222643033151 edge_12_9_0_0
   + 1.437285016398373 edge_12_13_0_0 + 0.3627215634527349 edge_12_16_0_0
   + 0.1740328133578097 edge_12_17_0_0 - 1.03558210670356 edge_12_20_0_0
   - 0.5779379627773191 edge_12_22_0_0 + 0.5816009252239014 edge_12_23_0_0
   - 0.387073032973019 edge_13_1_0_0 + 0.2720989551860304 edge_13_3_0_0
   + 0.5916727446005856 edge_13_7_0_0 - 0.2335874544179447 edge_13_8_0_0
   + 1.019237314583947 edge_13_9_0_0 + 3.015235077913464 edge_13_12_0_0
   - 0.1953159003746673 edge_13_14_0_0 + 1.744091903887576 edge_13_16_0_0
   + 0.6361346902736819 edge_13_17_0_0 - 0.4264940325585969 edge_13_20_0_0
   + 0.1022494105432847 edge_13_22_0_0 + 1.06785896849271 edge_13_23_0_0
   + 0.2745346104222806 edge_14_3_0_0 - 0.3402147241983244 edge_14_13_0_0
   - 0.1353506003668392 edge_14_17_0_0 - 0.2119470157501905 edge_14_20_0_0
   - 0.5936161396833735 edge_16_1_0_0 + 1.356858266865007 edge_16_3_0_0
   - 1.214294949631284 edge_16_7_0_0 - 0.6329106512189191 edge_16_8_0_0
   + 0.1818283140095502 edge_16_9_0_0 - 0.0741126697693087 edge_16_12_0_0
   + 0.2912247729470352 edge_16_13_0_0 + 2.002343974075383 edge_16_14_0_0
   + 0.7549288601986207 edge_16_17_0_0 + 0.2379030116626651 edge_16_20_0_0
   + 0.2203204624414992 edge_16_22_0_0 + 0.9610181691851231 edge_16_23_0_0
   - 0.309854460231618 edge_17_1_0_0 + 0.2740710971192454 edge_17_3_0_0
   + 0.1030734728920492 edge_17_7_0_0 + 0.130647990752545 edge_17_8_0_0
   - 0.1345823034118364 edge_17_9_0_0 + 0.1186774097755077 edge_17_12_0_0
   + 0.147897075191092 edge_17_13_0_0 - 0.0295067822282565 edge_17_14_0_0
   + 0.4427196359061172 edge_17_16_0_0 - 0.00362813281196438 edge_17_18_0_0
   + 1.209988532794084 edge_17_20_0_0 + 0.4557382374604513 edge_17_22_0_0
   + 0.6056266937212789 edge_17_23_0_0 + 0.0761155568564107 edge_18_22_0_0
   - 0.202977335141499 edge_20_3_0_0 - 1.817144911983364 edge_20_8_0_0
   - 0.2611780365551618 edge_20_14_0_0 - 0.705470077847309 edge_20_16_0_0
   - 0.0351475838100571 edge_20_17_0_0 + 2.491380509457502 edge_20_18_0_0
   + 2.698130986635255 edge_20_22_0_0 + 0.1964038436397124 edge_20_23_0_0
   - 1.178280013312061 edge_22_1_0_0 - 0.3716105614584933 edge_22_3_0_0
   - 0.8682735251811184 edge_22_7_0_0 - 0.7346699007416001 edge_22_9_0_0
   - 0.7656976284773441 edge_22_12_0_0 - 0.4476364386817117 edge_22_14_0_0
   + 1.013001225246109 edge_22_18_0_0 + 0.5181582742757033 edge_22_20_0_0
   - 0.2137262594368265 edge_22_23_0_0 - 1.156132552603889 edge_23_22_0_0
Subject To
 one_parent_1: edge_0_1_0_0 + edge_3_1_0_0 + edge_7_1_0_0 + edge_8_1_0_0
   + edge_12_1_0_0 + edge_13_1_0_0 + edge_16_1_0_0 + edge_17_1_0_0
   + edge_22_1_0_0 = 1
 consume_one_flow_unit_1: flow_0_1_0_0 - flow_1_7_0_0 - flow_1_8_0_0
   - flow_1_9_0_0 - flow_1_12_0_0 - flow_1_13_0_0 - flow_1_16_0_0
   - flow_1_17_0_0 + flow_3_1_0_0 + flow_7_1_0_0 + flow_8_1_0_0
   + flow_12_1_0_0 + flow_13_1_0_0 + flow_16_1_0_0 + flow_17_1_0_0
   + flow_22_1_0_0 = 1
 one_parent_2: = 1
 consume_one_flow_unit_2: = 1
 one_parent_3: edge_0_3_0_0 + edge_8_3_0_0 + edge_12_3_0_0 + edge_13_3_0_0
   + edge_14_3_0_0 + edge_16_3_0_0 + edge_17_3_0_0 + edge_20_3_0_0
   + edge_22_3_0_0 = 1
 consume_one_flow_unit_3: flow_0_3_0_0 - flow_3_1_0_0 - flow_3_7_0_0
   - flow_3_8_0_0 - flow_3_9_0_0 - flow_3_12_0_0 - flow_3_13_0_0
   - flow_3_14_0_0 - flow_3_16_0_0 - flow_3_17_0_0 - flow_3_18_0_0
   - flow_3_20_0_0 - flow_3_22_0_0 - flow_3_23_0_0 + flow_8_3_0_0
   + flow_12_3_0_0 + flow_13_3_0_0 + flow_14_3_0_0 + flow_16_3_0_0
   + flow_17_3_0_0 + flow_20_3_0_0 + flow_22_3_0_0 = 1
 one_parent_4: = 1
 consume_one_flow_unit_4: = 1
 one_parent_5: = 1
 consume_one_flow_unit_5: = 1
 one_parent_6: = 1
 consume_one_flow_unit_6: = 1
 one_parent_7: edge_0_7_0_0 + edge_1_7_0_0 + edge_3_7_0_0 + edge_8_7_0_0
   + edge_9_7_0_0 + edge_12_7_0_0 + edge_13_7_0_0 + edge_16_7_0_0
   + edge_17_7_0_0 + edge_22_7_0_0 = 1
 consume_one_flow_unit_7: flow_0_7_0_0 + flow_1_7_0_0 + flow_3_7_0_0
   - flow_7_1_0_0 - flow_7_8_0_0 - flow_7_9_0_0 - flow_7_12_0_0
   - flow_7_13_0_0 - flow_7_16_0_0 - flow_7_17_0_0 - flow_7_23_0_0
   + flow_8_7_0_0 + flow_9_7_0_0 + flow_12_7_0_0 + flow_13_7_0_0
   + flow_16_7_0_0 + flow_17_7_0_0 + flow_22_7_0_0 = 1
 one_parent_8: edge_0_8_0_0 + edge_1_8_0_0 + edge_3_8_0_0 + edge_7_8_0_0
   + edge_9_8_0_0 + edge_12_8_0_0 + edge_13_8_0_0 + edge_16_8_0_0
   + edge_17_8_0_0 + edge_20_8_0_0 = 1
 consume_one_flow_unit_8: flow_0_8_0_0 + flow_1_8_0_0 + flow_3_8_0_0
   + flow_7_8_0_0 - flow_8_1_0_0 - flow_8_3_0_0 - flow_8_7_0_0
   - flow_8_9_0_0 - flow_8_12_0_0 - flow_8_13_0_0 - flow_8_16_0_0
   - flow_8_17_0_0 - flow_8_20_0_0 - flow_8_22_0_0 - flow_8_23_0_0
   + flow_9_8_0_0 + flow_12_8_0_0 + flow_13_8_0_0 + flow_16_8_0_0
   + flow_17_8_0_0 + flow_20_8_0_0 = 1
 one_parent_9: edge_0_9_0_0 + edge_1_9_0_0 + edge_3_9_0_0 + edge_7_9_0_0
   + edge_8_9_0_0 + edge_12_9_0_0 + edge_13_9_0_0 + edge_16_9_0_0
   + edge_17_9_0_0 + edge_22_9_0_0 = 1
 consume_one_flow_unit_9: flow_0_9_0_0 + flow_1_9_0_0 + flow_3_9_0_0
   + flow_7_9_0_0 + flow_8_9_0_0 - flow_9_7_0_0 - flow_9_8_0_0
   - flow_9_12_0_0 - flow_9_13_0_0 + flow_12_9_0_0 + flow_13_9_0_0
   + flow_16_9_0_0 + flow_17_9_0_0 + flow_22_9_0_0 = 1
 one_parent_10: = 1
 consume_one_flow_unit_10: = 1
 one_parent_11: = 1
 consume_one_flow_unit_11: = 1
 one_parent_12: edge_0_12_0_0 + edge_1_12_0_0 + edge_3_12_0_0
   + edge_7_12_0_0 + edge_8_12_0_0 + edge_9_12_0_0 + edge_13_12_0_0
   + edge_16_12_0_0 + edge_17_12_0_0 + edge_22_12_0_0 = 1
 consume_one_flow_unit_12: flow_0_12_0_0 + flow_1_12_0_0 + flow_3_12_0_0
   + flow_7_12_0_0 + flow_8_12_0_0 + flow_9_12_0_0 - flow_12_1_0_0
   - flow_12_3_0_0 - flow_12_7_0_0 - flow_12_8_0_0 - flow_12_9_0_0
   - flow_12_13_0_0 - flow_12_16_0_0 - flow_12_17_0_0 - flow_12_20_0_0
   - flow_12_22_0_0 - flow_12_23_0_0 + flow_13_12_0_0 + flow_16_12_0_0
   + flow_17_12_0_0 + flow_22_12_0_0 = 1
 one_parent_13: edge_0_13_0_0 + edge_1_13_0_0 + edge_3_13_0_0
   + edge_7_13_0_0 + edge_8_13_0_0 + edge_9_13_0_0 + edge_12_13_0_0
   + edge_14_13_0_0 + edge_16_13_0_0 + edge_17_13_0_0 = 1
 consume_one_flow_unit_13: flow_0_13_0_0 + flow_1_13_0_0 + flow_3_13_0_0
   + flow_7_13_0_0 + flow_8_13_0_0 + flow_9_13_0_0 + flow_12_13_0_0
   - flow_13_1_0_0 - flow_13_3_0_0 - flow_13_7_0_0 - flow_13_8_0_0
   - flow_13_9_0_0 - flow_13_12_0_0 - flow_13_14_0_0 - flow_13_16_0_0
   - flow_13_17_0_0 - flow_13_20_0_0 - flow_13_22_0_0 - flow_13_23_0_0
   + flow_14_13_0_0 + flow_16_13_0_0 + flow_17_13_0_0 = 1
 one_parent_14: edge_3_14_0_0 + edge_13_14_0_0 + edge_16_14_0_0
   + edge_17_14_0_0 + edge_20_14_0_0 + edge_22_14_0_0 = 1
 consume_one_flow_unit_14: flow_3_14_0_0 + flow_13_14_0_0 - flow_14_3_0_0
   - flow_14_13_0_0 - flow_14_17_0_0 - flow_14_20_0_0 + flow_16_14_0_0
   + flow_17_14_0_0 + flow_20_14_0_0 + flow_22_14_0_0 = 1
 one_parent_15: = 1
 consume_one_flow_unit_15: = 1
 one_parent_16: edge_0_16_0_0 + edge_1_16_0_0 + edge_3_16_0_0
   + edge_7_16_0_0 + edge_8_16_0_0 + edge_12_16_0_0 + edge_13_16_0_0
   + edge_17_16_0_0 + edge_20_16_0_0 = 1
 consume_one_flow_unit_16: flow_0_16_0_0 + flow_1_16_0_0 + flow_3_16_0_0
   + flow_7_16_0_0 + flow_8_16_0_0 + flow_12_16_0_0 + flow_13_16_0_0
   - flow_16_1_0_0 - flow_16_3_0_0 - flow_16_7_0_0 - flow_16_8_0_0
   - flow_16_9_0_0 - flow_16_12_0_0 - flow_16_13_0_0 - flow_16_14_0_0
   - flow_16_17_0_0 - flow_16_20_0_0 - flow_16_22_0_0 - flow_16_23_0_0
   + flow_17_16_0_0 + flow_20_16_0_0 = 1
 one_parent_17: edge_0_17_0_0 + edge_1_17_0_0 + edge_3_17_0_0
   + edge_7_17_0_0 + edge_8_17_0_0 + edge_12_17_0_0 + edge_13_17_0_0
   + edge_14_17_0_0 + edge_16_17_0_0 + edge_20_17_0_0 = 1
 consume_one_flow_unit_17: flow_0_17_0_0 + flow_1_17_0_0 + flow_3_17_0_0
   + flow_7_17_0_0 + flow_8_17_0_0 + flow_12_17_0_0 + flow_13_17_0_0
   + flow_14_17_0_0 + flow_16_17_0_0 - flow_17_1_0_0 - flow_17_3_0_0
   - flow_17_7_0_0 - flow_17_8_0_0 - flow_17_9_0_0 - flow_17_12_0_0
   - flow_17_13_0_0 - flow_17_14_0_0 - flow_17_16_0_0 - flow_17_18_0_0
   - flow_17_20_0_0 - flow_17_22_0_0 - flow_17_23_0_0 + flow_20_17_0_0 = 1
 one_parent_18: edge_3_18_0_0 + edge_17_18_0_0 + edge_20_18_0_0
   + edge_22_18_0_0 = 1
 consume_one_flow_unit_18: flow_3_18_0_0 + flow_17_18_0_0 - flow_18_22_0_0
   + flow_20_18_0_0 + flow_22_18_0_0 = 1
 one_parent_19: = 1
 consume_one_flow_unit_19: = 1
 one_parent_20: edge_0_20_0_0 + edge_3_20_0_0 + edge_8_20_0_0
   + edge_12_20_0_0 + edge_13_20_0_0 + edge_14_20_0_0 + edge_16_20_0_0
   + edge_17_20_0_0 + edge_22_20_0_0 = 1
 consume_one_flow_unit_20: flow_0_20_0_0 + flow_3_20_0_0 + flow_8_20_0_0
   + flow_12_20_0_0 + flow_13_20_0_0 + flow_14_20_0_0 + flow_16_20_0_0
   + flow_17_20_0_0 - flow_20_3_0_0 - flow_20_8_0_0 - flow_20_14_0_0
   - flow_20_16_0_0 - flow_20_17_0_0 - flow_20_18_0_0 - flow_20_22_0_0
   - flow_20_23_0_0 + flow_22_20_0_0 = 1
 one_parent_21: = 1
 consume_one_flow_unit_21: = 1
 one_parent_22: edge_3_22_0_0 + edge_8_22_0_0 + edge_12_22_0_0
   + edge_13_22_0_0 + edge_16_22_0_0 + edge_17_22_0_0 + edge_18_22_0_0
   + edge_20_22_0_0 + edge_23_22_0_0 = 1
 consume_one_flow_unit_22: flow_3_22_0_0 + flow_8_22_0_0 + flow_12_22_0_0
   + flow_13_22_0_0 + flow_16_22_0_0 + flow_17_22_0_0 + flow_18_22_0_0
   + flow_20_22_0_0 - flow_22_1_0_0 - flow_22_3_0_0 - flow_22_7_0_0
   - flow_22_9_0_0 - flow_22_12_0_0 - flow_22_14_0_0 - flow_22_18_0_0
   - flow_22_20_0_0 - flow_22_23_0_0 + flow_23_22_0_0 = 1
 one_parent_23: edge_3_23_0_0 + edge_7_23_0_0 + edge_8_23_0_0
   + edge_12_23_0_0 + edge_13_23_0_0 + edge_16_23_0_0 + edge_17_23_0_0
   + edge_20_23_0_0 + edge_22_23_0_0 = 1
 consume_one_flow_unit_23: flow_3_23_0_0 + flow_7_23_0_0 + flow_8_23_0_0
   + flow_12_23_0_0 + flow_13_23_0_0 + flow_16_23_0_0 + flow_17_23_0_0
   + flow_20_23_0_0 + flow_22_23_0_0 - flow_23_22_0_0 = 1
 root_flow: flow_0_1_0_0 + flow_0_3_0_0 + flow_0_7_0_0 + flow_0_8_0_0
   + flow_0_9_0_0 + flow_0_12_0_0 + flow_0_13_0_0 + flow_0_16_0_0
   + flow_0_17_0_0 + flow_0_20_0_0 = 23
 inactive_no_flow_0_1_0_0: flow_0_1_0_0 - 1000 edge_0_1_0_0 <= 0
 inactive_no_flow_0_3_0_0: flow_0_3_0_0 - 1000 edge_0_3_0_0 <= 0
 inactive_no_flow_0_7_0_0: flow_0_7_0_0 - 1000 edge_0_7_0_0 <= 0
 inactive_no_flow_0_8_0_0: flow_0_8_0_0 - 1000 edge_0_8_0_0 <= 0
 inactive_no_flow_0_9_0_0: flow_0_9_0_0 - 1000 edge_0_9_0_0 <= 0
 inactive_no_flow_0_12_0_0: flow_0_12_0_0 - 1000 edge_0_12_0_0 <= 0
 inactive_no_flow_0_13_0_0: flow_0_13_0_0 - 1000 edge_0_13_0_0 <= 0
 inactive_no_flow_0_16_0_0: flow_0_16_0_0 - 1000 edge_0_16_0_0 <= 0
 inactive_no_flow_0_17_0_0: flow_0_17_0_0 - 1000 edge_0_17_0_0 <= 0
 inactive_no_flow_0_20_0_0: flow_0_20_0_0 - 1000 edge_0_20_0_0 <= 0
 inactive_no_flow_1_7_0_0: flow_1_7_0_0 - 1000 edge_1_7_0_0 <= 0
 inactive_no_flow_1_8_0_0: flow_1_8_0_0 - 1000 edge_1_8_0_0 <= 0
 inactive_no_flow_1_9_0_0: flow_1_9_0_0 - 1000 edge_1_9_0_0 <= 0
 inactive_no_flow_1_12_0_0: flow_1_12_0_0 - 1000 edge_1_12_0_0 <= 0
 inactive_no_flow_1_13_0_0: flow_1_13_0_0 - 1000 edge_1_13_0_0 <= 0
 inactive_no_flow_1_16_0_0: flow_1_16_0_0 - 1000 edge_1_16_0_0 <= 0
 inactive_no_flow_1_17_0_0: flow_1_17_0_0 - 1000 edge_1_17_0_0 <= 0
 inactive_no_flow_3_1_0_0: flow_3_1_0_0 - 1000 edge_3_1_0_0 <= 0
 inactive_no_flow_3_7_0_0: flow_3_7_0_0 - 1000 edge_3_7_0_0 <= 0
 inactive_no_flow_3_8_0_0: flow_3_8_0_0 - 1000 edge_3_8_0_0 <= 0
 inactive_no_flow_3_9_0_0: flow_3_9_0_0 - 1000 edge_3_9_0_0 <= 0
 inactive_no_flow_3_12_0_0: flow_3_12_0_0 - 1000 edge_3_12_0_0 <= 0
 inactive_no_flow_3_13_0_0: flow_3_13_0_0 - 1000 edge_3_13_0_0 <= 0
 inactive_no_flow_3_14_0_0: flow_3_14_0_0 - 1000 edge_3_14_0_0 <= 0
 inactive_no_flow_3_16_0_0: flow_3_16_0_0 - 1000 edge_3_16_0_0 <= 0
 inactive_no_flow_3_17_0_0: flow_3_17_0_0 - 1000 edge_3_17_0_0 <= 0
 inactive_no_flow_3_18_0_0: flow_3_18_0_0 - 1000 edge_3_18_0_0 <= 0
 inactive_no_flow_3_20_0_0: flow_3_20_0_0 - 1000 edge_3_20_0_0 <= 0
 inactive_no_flow_3_22_0_0: flow_3_22_0_0 - 1000 edge_3_22_0_0 <= 0
 inactive_no_flow_3_23_0_0: flow_3_23_0_0 - 1000 edge_3_23_0_0 <= 0
 inactive_no_flow_7_1_0_0: flow_7_1_0_0 - 1000 edge_7_1_0_0 <= 0
 inactive_no_flow_7_8_0_0: flow_7_8_0_0 - 1000 edge_7_8_0_0 <= 0
 inactive_no_flow_7_9_0_0: flow_7_9_0_0 - 1000 edge_7_9_0_0 <= 0
 inactive_no_flow_7_12_0_0: flow_7_12_0_0 - 1000 edge_7_12_0_0 <= 0
 inactive_no_flow_7_13_0_0: flow_7_13_0_0 - 1000 edge_7_13_0_0 <= 0
 inactive_no_flow_7_16_0_0: flow_7_16_0_0 - 1000 edge_7_16_0_0 <= 0
 inactive_no_flow_7_17_0_0: flow_7_17_0_0 - 1000 edge_7_17_0_0 <= 0
 inactive_no_flow_7_23_0_0: flow_7_23_0_0 - 1000 edge_7_23_0_0 <= 0
 inactive_no_flow_8_1_0_0: flow_8_1_0_0 - 1000 edge_8_1_0_0 <= 0
 inactive_no_flow_8_3_0_0: flow_8_3_0_0 - 1000 edge_8_3_0_0 <= 0
 inactive_no_flow_8_7_0_0: flow_8_7_0_0 - 1000 edge_8_7_0_0 <= 0
 inactive_no_flow_8_9_0_0: flow_8_9_0_0 - 1000 edge_8_9_0_0 <= 0
 inactive_no_flow_8_12_0_0: flow_8_12_0_0 - 1000 edge_8_12_0_0 <= 0
 inactive_no_flow_8_13_0_0: flow_8_13_0_0 - 1000 edge_8_13_0_0 <= 0
 inactive_no_flow_8_16_0_0: flow_8_16_0_0 - 1000 edge_8_16_0_0 <= 0
 inactive_no_flow_8_17_0_0: flow_8_17_0_0 - 1000 edge_8_17_0_0 <= 0
 inactive_no_flow_8_20_0_0: flow_8_20_0_0 - 1000 edge_8_20_0_0 <= 0
 inactive_no_flow_8_22_0_0: flow_8_22_0_0 - 1000 edge_8_22_0_0 <= 0
 inactive_no_flow_8_23_0_0: flow_8_23_0_0 - 1000 edge_8_23_0_0 <= 0
 inactive_no_flow_9_7_0_0: flow_9_7_0_0 - 1000 edge_9_7_0_0 <= 0
 inactive_no_flow_9_8_0_0: flow_9_8_0_0 - 1000 edge_9_8_0_0 <= 0
 inactive_no_flow_9_12_0_0: flow_9_12_0_0 - 1000 edge_9_12_0_0 <= 0
 inactive_no_flow_9_13_0_0: flow_9_13_0_0 - 1000 edge_9_13_0_0 <= 0
 inactive_no_flow_12_1_0_0: flow_12_1_0_0 - 1000 edge_12_1_0_0 <= 0
 inactive_no_flow_12_3_0_0: flow_12_3_0_0 - 1000 edge_12_3_0_0 <= 0
 inactive_no_flow_12_7_0_0: flow_12_7_0_0 - 1000 edge_12_7_0_0 <= 0
 inactive_no_flow_12_8_0_0: flow_12_8_0_0 - 1000 edge_12_8_0_0 <= 0
 inactive_no_flow_12_9_0_0: flow_12_9_0_0 - 1000 edge_12_9_0_0 <= 0
 inactive_no_flow_12_13_0_0: flow_12_13_0_0 - 1000 edge_12_13_0_0 <= 0
 inactive_no_flow_12_16_0_0: flow_12_16_0_0 - 1000 edge_12_16_0_0 <= 0
 inactive_no_flow_12_17_0_0: flow_12_17_0_0 - 1000 edge_12_17_0_0 <= 0
 inactive_no_flow_12_20_0_0: flow_12_20_0_0 - 1000 edge_12_20_0_0 <= 0
 inactive_no_flow_12_22_0_0: flow_12_22_0_0 - 1000 edge_12_22_0_0 <= 0
 inactive_no_flow_12_23_0_0: flow_12_23_0_0 - 1000 edge_12_23_0_0 <= 0
 inactive_no_flow_13_1_0_0: flow_13_1_0_0 - 1000 edge_13_1_0_0 <= 0
 inactive_no_flow_13_3_0_0: flow_13_3_0_0 - 1000 edge_13_3_0_0 <= 0
 inactive_no_flow_13_7_0_0: flow_13_7_0_0 - 1000 edge_13_7_0_0 <= 0
 inactive_no_flow_13_8_0_0: flow_13_8_0_0 - 1000 edge_13_8_0_0 <= 0
 inactive_no_flow_13_9_0_0: flow_13_9_0_0 - 1000 edge_13_9_0_0 <= 0
 inactive_no_flow_13_12_0_0: flow_13_12_0_0 - 1000 edge_13_12_0_0 <= 0
 inactive_no_flow_13_14_0_0: flow_13_14_0_0 - 1000 edge_13_14_0_0 <= 0
 inactive_no_flow_13_16_0_0: flow_13_16_0_0 - 1000 edge_13_16_0_0 <= 0
 inactive_no_flow_13_17_0_0: flow_13_17_0_0 - 1000 edge_13_17_0_0 <= 0
 inactive_no_flow_13_20_0_0: flow_13_20_0_0 - 1000 edge_13_20_0_0 <= 0
 inactive_no_flow_13_22_0_0: flow_13_22_0_0 - 1000 edge_13_22_0_0 <= 0
 inactive_no_flow_13_23_0_0: flow_13_23_0_0 - 1000 edge_13_23_0_0 <= 0
 inactive_no_flow_14_3_0_0: flow_14_3_0_0 - 1000 edge_14_3_0_0 <= 0
 inactive_no_flow_14_13_0_0: flow_14_13_0_0 - 1000 edge_14_13_0_0 <= 0
 inactive_no_flow_14_17_0_0: flow_14_17_0_0 - 1000 edge_14_17_0_0 <= 0
 inactive_no_flow_14_20_0_0: flow_14_20_0_0 - 1000 edge_14_20_0_0 <= 0
 inactive_no_flow_16_1_0_0: flow_16_1_0_0 - 1000 edge_16_1_0_0 <= 0
 inactive_no_flow_16_3_0_0: flow_16_3_0_0 - 1000 edge_16_3_0_0 <= 0
 inactive_no_flow_16_7_0_0: flow_16_7_0_0 - 1000 edge_16_7_0_0 <= 0
 inactive_no_flow_16_8_0_0: flow_16_8_0_0 - 1000 edge_16_8_0_0 <= 0
 inactive_no_flow_16_9_0_0: flow_16_9_0_0 - 1000 edge_16_9_0_0 <= 0
 inactive_no_flow_16_12_0_0: flow_16_12_0_0 - 1000 edge_16_12_0_0 <= 0
 inactive_no_flow_16_13_0_0: flow_16_13_0_0 - 1000 edge_16_13_0_0 <= 0
 inactive_no_flow_16_14_0_0: flow_16_14_0_0 - 1000 edge_16_14_0_0 <= 0
 inactive_no_flow_16_17_0_0: flow_16_17_0_0 - 1000 edge_16_17_0_0 <= 0
 inactive_no_flow_16_20_0_0: flow_16_20_0_0 - 1000 edge_16_20_0_0 <= 0
 inactive_no_flow_16_22_0_0: flow_16_22_0_0 - 1000 edge_16_22_0_0 <= 0
 inactive_no_flow_16_23_0_0: flow_16_23_0_0 - 1000 edge_16_23_0_0 <= 0
 inactive_no_flow_17_1_0_0: flow_17_1_0_0 - 1000 edge_17_1_0_0 <= 0
 inactive_no_flow_17_3_0_0: flow_17_3_0_0 - 1000 edge_17_3_0_0 <= 0
 inactive_no_flow_17_7_0_0: flow_17_7_0_0 - 1000 edge_17_7_0_0 <= 0
 inactive_no_flow_17_8_0_0: flow_17_8_0_0 - 1000 edge_17_8_0_0 <= 0
 inactive_no_flow_17_9_0_0: flow_17_9_0_0 - 1000 edge_17_9_0_0 <= 0
 inactive_no_flow_17_12_0_0: flow_17_12_0_0 - 1000 edge_17_12_0_0 <= 0
 inactive_no_flow_17_13_0_0: flow_17_13_0_0 - 1000 edge_17_13_0_0 <= 0
 inactive_no_flow_17_14_0_0: flow_17_14_0_0 - 1000 edge_17_14_0_0 <= 0
 inactive_no_flow_17_16_0_0: flow_17_16_0_0 - 1000 edge_17_16_0_0 <= 0
 inactive_no_flow_17_18_0_0: flow_17_18_0_0 - 1000 edge_17_18_0_0 <= 0
 inactive_no_flow_17_20_0_0: flow_17_20_0_0 - 1000 edge_17_20_0_0 <= 0
 inactive_no_flow_17_22_0_0: flow_17_22_0_0 - 1000 edge_17_22_0_0 <= 0
 inactive_no_flow_17_23_0_0: flow_17_23_0_0 - 1000 edge_17_23_0_0 <= 0
 inactive_no_flow_18_22_0_0: flow_18_22_0_0 - 1000 edge_18_22_0_0 <= 0
 inactive_no_flow_20_3_0_0: flow_20_3_0_0 - 1000 edge_20_3_0_0 <= 0
 inactive_no_flow_20_8_0_0: flow_20_8_0_0 - 1000 edge_20_8_0_0 <= 0
 inactive_no_flow_20_14_0_0: flow_20_14_0_0 - 1000 edge_20_14_0_0 <= 0
 inactive_no_flow_20_16_0_0: flow_20_16_0_0 - 1000 edge_20_16_0_0 <= 0
 inactive_no_flow_20_17_0_0: flow_20_17_0_0 - 1000 edge_20_17_0_0 <= 0
 inactive_no_flow_20_18_0_0: flow_20_18_0_0 - 1000 edge_20_18_0_0 <= 0
 inactive_no_flow_20_22_0_0: flow_20_22_0_0 - 1000 edge_20_22_0_0 <= 0
 inactive_no_flow_20_23_0_0: flow_20_23_0_0 - 1000 edge_20_23_0_0 <= 0
 inactive_no_flow_22_1_0_0: flow_22_1_0_0 - 1000 edge_22_1_0_0 <= 0
 inactive_no_flow_22_3_0_0: flow_22_3_0_0 - 1000 edge_22_3_0_0 <= 0
 inactive_no_flow_22_7_0_0: flow_22_7_0_0 - 1000 edge_22_7_0_0 <= 0
 inactive_no_flow_22_9_0_0: flow_22_9_0_0 - 1000 edge_22_9_0_0 <= 0
 inactive_no_flow_22_12_0_0: flow_22_12_0_0 - 1000 edge_22_12_0_0 <= 0
 inactive_no_flow_22_14_0_0: flow_22_14_0_0 - 1000 edge_22_14_0_0 <= 0
 inactive_no_flow_22_18_0_0: flow_22_18_0_0 - 1000 edge_22_18_0_0 <= 0
 inactive_no_flow_22_20_0_0: flow_22_20_0_0 - 1000 edge_22_20_0_0 <= 0
 inactive_no_flow_22_23_0_0: flow_22_23_0_0 - 1000 edge_22_23_0_0 <= 0
 inactive_no_flow_23_22_0_0: flow_23_22_0_0 - 1000 edge_23_22_0_0 <= 0
Bounds
Binaries
 edge_0_1_0_0 edge_0_3_0_0 edge_0_7_0_0 edge_0_8_0_0 edge_0_9_0_0
 edge_0_12_0_0 edge_0_13_0_0 edge_0_16_0_0 edge_0_17_0_0 edge_0_20_0_0
 edge_1_7_0_0 edge_1_8_0_0 edge_1_9_0_0 edge_1_12_0_0 edge_1_13_0_0
 edge_1_16_0_0 edge_1_17_0_0 edge_3_1_0_0 edge_3_7_0_0 edge_3_8_0_0
 edge_3_9_0_0 edge_3_12_0_0 edge_3_13_0_0 edge_3_14_0_0 edge_3_16_0_0
 edge_3_17_0_0 edge_3_18_0_0 edge_3_20_0_0 edge_3_22_0_0 edge_3_23_0_0
 edge_7_1_0_0 edge_7_8_0_0 edge_7_9_0_0 edge_7_12_0_0 edge_7_13_0_0
 edge_7_16_0_0 edge_7_17_0_0 edge_7_23_0_0 edge_8_1_0_0 edge_8_3_0_0
 edge_8_7_0_0 edge_8_9_0_0 edge_8_12_0_0 edge_8_13_0_0 edge_8_16_0_0
 edge_8_17_0_0 edge_8_20_0_0 edge_8_22_0_0 edge_8_23_0_0 edge_9_7_0_0
 edge_9_8_0_0 edge_9_12_0_0 edge_9_13_0_0 edge_12_1_0_0 edge_12_3_0_0
 edge_12_7_0_0 edge_12_8_0_0 edge_12_9_0_0 edge_12_13_0_0 edge_12_16_0_0
 edge_12_17_0_0 edge_12_20_0_0 edge_12_22_0_0 edge_12_23_0_0 edge_13_1_0_0
 edge_13_3_0_0 edge_13_7_0_0 edge_13_8_0_0 edge_13_9_0_0 edge_13_12_0_0
 edge_13_14_0_0 edge_13_16_0_0 edge_13_17_0_0 edge_13_20_0_0 edge_13_22_0_0
 edge_13_23_0_0 edge_14_3_0_0 edge_14_13_0_0 edge_14_17_0_0 edge_14_20_0_0
 edge_16_1_0_0 edge_16_3_0_0 edge_16_7_0_0 edge_16_8_0_0 edge_16_9_0_0
 edge_16_12_0_0 edge_16_13_0_0 edge_16_14_0_0 edge_16_17_0_0 edge_16_20_0_0
 edge_16_22_0_0 edge_16_23_0_0 edge_17_1_0_0 edge_17_3_0_0 edge_17_7_0_0
 edge_17_8_0_0 edge_17_9_0_0 edge_17_12_0_0 edge_17_13_0_0 edge_17_14_0_0
 edge_17_16_0_0 edge_17_18_0_0 edge_17_20_0_0 edge_17_22_0_0 edge_17_23_0_0
 edge_18_22_0_0 edge_20_3_0_0 edge_20_8_0_0 edge_20_14_0_0 edge_20_16_0_0
 edge_20_17_0_0 edge_20_18_0_0 edge_20_22_0_0 edge_20_23_0_0 edge_22_1_0_0
 edge_22_3_0_0 edge_22_7_0_0 edge_22_9_0_0 edge_22_12_0_0 edge_22_14_0_0
 edge_22_18_0_0 edge_22_20_0_0 edge_22_23_0_0 edge_23_22_0_0
End
